robust/generate/spp_dkp_Lefebvre_et_al_2026/src/shortest_path_6_10.kp
52
110

[3.77 0.12 0.97 2.83 0.45 2.84 0.25 4.4 4.49 2.39 2.92 3.51 3.51 1.91 3.52 1.94 4.24 3.13 1.69 3.94 1.74 0.44 1.49 1.9]

[25 39 77 60 15 85 72 89 69 23 51 18 42 11 37 9 22 92 15 52 97 96 64 56]
