robust/generate/spp_dkp_Lefebvre_et_al_2026/src/shortest_path_6_10.lp
\ Model sp_6_10
\ LP format - for model browsing. Use MPS format to capture full model detail.
\ Signature: 0x1a3fed327f855427
Minimize
  49.09 y[0,2] + 18.11 y[0,3] + 22.02 y[0,4] + 24.76 y[0,5] + 35.85 y[1,2]
   + 58 y[1,5] + 49.09 y[2,0] + 35.85 y[2,1] + 43.93 y[2,3] + 51.62 y[2,4]
   + 25.63 y[2,5] + 18.11 y[3,0] + 43.93 y[3,2] + 38.48 y[3,4] + 19 y[3,5]
   + 22.02 y[4,0] + 51.62 y[4,2] + 38.48 y[4,3] + 35.13 y[4,5]
   + 24.76 y[5,0] + 58 y[5,1] + 25.63 y[5,2] + 19 y[5,3] + 35.13 y[5,4]
   + 4.909 r[0,2] + 1.811 r[0,3] + 2.202 r[0,4] + 2.476 r[0,5]
   + 3.585 r[1,2] + 5.8 r[1,5] + 4.909 r[2,0] + 3.585 r[2,1] + 4.393 r[2,3]
   + 5.162 r[2,4] + 2.563 r[2,5] + 1.811 r[3,0] + 4.393 r[3,2]
   + 3.848 r[3,4] + 1.9 r[3,5] + 2.202 r[4,0] + 5.162 r[4,2] + 3.848 r[4,3]
   + 3.513 r[4,5] + 2.476 r[5,0] + 5.8 r[5,1] + 2.563 r[5,2] + 1.9 r[5,3]
   + 3.513 r[5,4]
Subject To
 flow_cons_inner_nodes[0]: - y[0,2] - y[0,3] - y[0,4] - y[0,5] + y[2,0]
   + y[3,0] + y[4,0] + y[5,0] = 0
 flow_cons_inner_nodes[2]: y[0,2] + y[1,2] - y[2,0] - y[2,1] - y[2,3]
   - y[2,4] - y[2,5] + y[3,2] + y[4,2] + y[5,2] = 0
 flow_cons_inner_nodes[3]: y[0,3] + y[2,3] - y[3,0] - y[3,2] - y[3,4]
   - y[3,5] + y[4,3] + y[5,3] = 0
 flow_cons_inner_nodes[5]: y[0,5] + y[1,5] + y[2,5] + y[3,5] + y[4,5]
   - y[5,0] - y[5,1] - y[5,2] - y[5,3] - y[5,4] = 0
 flow_cons_source: y[1,2] + y[1,5] - y[2,1] - y[5,1] = 1
 flow_cons_target: y[0,4] + y[2,4] + y[3,4] - y[4,0] - y[4,2] - y[4,3]
   - y[4,5] + y[5,4] = 1
 primal_lower: - 3.77 y[0,2] - 0.12 y[0,3] - 0.97 y[0,4] - 2.83 y[0,5]
   - 0.45 y[1,2] - 2.84 y[1,5] - 0.25 y[2,0] - 4.4 y[2,1] - 4.49 y[2,3]
   - 2.39 y[2,4] - 2.92 y[2,5] - 3.51 y[3,0] - 3.51 y[3,2] - 1.91 y[3,4]
   - 3.52 y[3,5] - 1.94 y[4,0] - 4.24 y[4,2] - 3.13 y[4,3] - 1.69 y[4,5]
   - 3.94 y[5,0] - 1.74 y[5,1] - 0.44 y[5,2] - 1.49 y[5,3] - 1.9 y[5,4]
   + 25 u[0,2] + 39 u[0,3] + 77 u[0,4] + 60 u[0,5] + 15 u[1,2] + 85 u[1,5]
   + 72 u[2,0] + 89 u[2,1] + 69 u[2,3] + 23 u[2,4] + 51 u[2,5] + 18 u[3,0]
   + 42 u[3,2] + 11 u[3,4] + 37 u[3,5] + 9 u[4,0] + 22 u[4,2] + 92 u[4,3]
   + 15 u[4,5] + 52 u[5,0] + 97 u[5,1] + 96 u[5,2] + 64 u[5,3] + 56 u[5,4]
   <= 110
 mccormick1[0,2]: - u[0,2] + r[0,2] <= 0
 mccormick1[0,3]: - u[0,3] + r[0,3] <= 0
 mccormick1[0,4]: - u[0,4] + r[0,4] <= 0
 mccormick1[0,5]: - u[0,5] + r[0,5] <= 0
 mccormick1[1,2]: - u[1,2] + r[1,2] <= 0
 mccormick1[1,5]: - u[1,5] + r[1,5] <= 0
 mccormick1[2,0]: - u[2,0] + r[2,0] <= 0
 mccormick1[2,1]: - u[2,1] + r[2,1] <= 0
 mccormick1[2,3]: - u[2,3] + r[2,3] <= 0
 mccormick1[2,4]: - u[2,4] + r[2,4] <= 0
 mccormick1[2,5]: - u[2,5] + r[2,5] <= 0
 mccormick1[3,0]: - u[3,0] + r[3,0] <= 0
 mccormick1[3,2]: - u[3,2] + r[3,2] <= 0
 mccormick1[3,4]: - u[3,4] + r[3,4] <= 0
 mccormick1[3,5]: - u[3,5] + r[3,5] <= 0
 mccormick1[4,0]: - u[4,0] + r[4,0] <= 0
 mccormick1[4,2]: - u[4,2] + r[4,2] <= 0
 mccormick1[4,3]: - u[4,3] + r[4,3] <= 0
 mccormick1[4,5]: - u[4,5] + r[4,5] <= 0
 mccormick1[5,0]: - u[5,0] + r[5,0] <= 0
 mccormick1[5,1]: - u[5,1] + r[5,1] <= 0
 mccormick1[5,2]: - u[5,2] + r[5,2] <= 0
 mccormick1[5,3]: - u[5,3] + r[5,3] <= 0
 mccormick1[5,4]: - u[5,4] + r[5,4] <= 0
 mccormick2[0,2]: - y[0,2] + r[0,2] <= 0
 mccormick2[0,3]: - y[0,3] + r[0,3] <= 0
 mccormick2[0,4]: - y[0,4] + r[0,4] <= 0
 mccormick2[0,5]: - y[0,5] + r[0,5] <= 0
 mccormick2[1,2]: - y[1,2] + r[1,2] <= 0
 mccormick2[1,5]: - y[1,5] + r[1,5] <= 0
 mccormick2[2,0]: - y[2,0] + r[2,0] <= 0
 mccormick2[2,1]: - y[2,1] + r[2,1] <= 0
 mccormick2[2,3]: - y[2,3] + r[2,3] <= 0
 mccormick2[2,4]: - y[2,4] + r[2,4] <= 0
 mccormick2[2,5]: - y[2,5] + r[2,5] <= 0
 mccormick2[3,0]: - y[3,0] + r[3,0] <= 0
 mccormick2[3,2]: - y[3,2] + r[3,2] <= 0
 mccormick2[3,4]: - y[3,4] + r[3,4] <= 0
 mccormick2[3,5]: - y[3,5] + r[3,5] <= 0
 mccormick2[4,0]: - y[4,0] + r[4,0] <= 0
 mccormick2[4,2]: - y[4,2] + r[4,2] <= 0
 mccormick2[4,3]: - y[4,3] + r[4,3] <= 0
 mccormick2[4,5]: - y[4,5] + r[4,5] <= 0
 mccormick2[5,0]: - y[5,0] + r[5,0] <= 0
 mccormick2[5,1]: - y[5,1] + r[5,1] <= 0
 mccormick2[5,2]: - y[5,2] + r[5,2] <= 0
 mccormick2[5,3]: - y[5,3] + r[5,3] <= 0
 mccormick2[5,4]: - y[5,4] + r[5,4] <= 0
 mccormick3[0,2]: - y[0,2] - u[0,2] + r[0,2] >= -1
 mccormick3[0,3]: - y[0,3] - u[0,3] + r[0,3] >= -1
 mccormick3[0,4]: - y[0,4] - u[0,4] + r[0,4] >= -1
 mccormick3[0,5]: - y[0,5] - u[0,5] + r[0,5] >= -1
 mccormick3[1,2]: - y[1,2] - u[1,2] + r[1,2] >= -1
 mccormick3[1,5]: - y[1,5] - u[1,5] + r[1,5] >= -1
 mccormick3[2,0]: - y[2,0] - u[2,0] + r[2,0] >= -1
 mccormick3[2,1]: - y[2,1] - u[2,1] + r[2,1] >= -1
 mccormick3[2,3]: - y[2,3] - u[2,3] + r[2,3] >= -1
 mccormick3[2,4]: - y[2,4] - u[2,4] + r[2,4] >= -1
 mccormick3[2,5]: - y[2,5] - u[2,5] + r[2,5] >= -1
 mccormick3[3,0]: - y[3,0] - u[3,0] + r[3,0] >= -1
 mccormick3[3,2]: - y[3,2] - u[3,2] + r[3,2] >= -1
 mccormick3[3,4]: - y[3,4] - u[3,4] + r[3,4] >= -1
 mccormick3[3,5]: - y[3,5] - u[3,5] + r[3,5] >= -1
 mccormick3[4,0]: - y[4,0] - u[4,0] + r[4,0] >= -1
 mccormick3[4,2]: - y[4,2] - u[4,2] + r[4,2] >= -1
 mccormick3[4,3]: - y[4,3] - u[4,3] + r[4,3] >= -1
 mccormick3[4,5]: - y[4,5] - u[4,5] + r[4,5] >= -1
 mccormick3[5,0]: - y[5,0] - u[5,0] + r[5,0] >= -1
 mccormick3[5,1]: - y[5,1] - u[5,1] + r[5,1] >= -1
 mccormick3[5,2]: - y[5,2] - u[5,2] + r[5,2] >= -1
 mccormick3[5,3]: - y[5,3] - u[5,3] + r[5,3] >= -1
 mccormick3[5,4]: - y[5,4] - u[5,4] + r[5,4] >= -1
Bounds
Binaries
 y[0,2] y[0,3] y[0,4] y[0,5] y[1,2] y[1,5] y[2,0] y[2,1] y[2,3] y[2,4]
 y[2,5] y[3,0] y[3,2] y[3,4] y[3,5] y[4,0] y[4,2] y[4,3] y[4,5] y[5,0]
 y[5,1] y[5,2] y[5,3] y[5,4] u[0,2] u[0,3] u[0,4] u[0,5] u[1,2] u[1,5]
 u[2,0] u[2,1] u[2,3] u[2,4] u[2,5] u[3,0] u[3,2] u[3,4] u[3,5] u[4,0]
 u[4,2] u[4,3] u[4,5] u[5,0] u[5,1] u[5,2] u[5,3] u[5,4] r[0,2] r[0,3]
 r[0,4] r[0,5] r[1,2] r[1,5] r[2,0] r[2,1] r[2,3] r[2,4] r[2,5] r[3,0]
 r[3,2] r[3,4] r[3,5] r[4,0] r[4,2] r[4,3] r[4,5] r[5,0] r[5,1] r[5,2]
 r[5,3] r[5,4]
End
